language Essence 1.3

letting class be function(1 --> 2, 2 --> 2, 3 --> 2, 4 --> 1, 5 --> 1, 6 --> 2, 7 --> 2, 8 --> 2)
letting deck_length be 78
letting deck_width be 78
letting length be function(1 --> 2, 2 --> 2, 3 --> 29, 4 --> 21, 5 --> 24, 6 --> 7, 7 --> 7, 8 --> 44)
letting n_classes be 2
letting n_containers be 8
letting separation be function({1, 2} --> 41)
letting width be function(1 --> 39, 2 --> 4, 3 --> 52, 4 --> 60, 5 --> 1, 6 --> 8, 7 --> 16, 8 --> 40)
